[2026-03-23T16:00:05.373Z] Pipeline "set_exp_3_exp_3_n021_c001_g002" → 2026_03_23_16_00_05_set_exp_3_exp_3_n021_c001_g002_max.sol
Set parameter WLSAccessID
Set parameter WLSSecret
Set parameter LicenseID to value 2792458
Set parameter LogFile to value "gurobi.log"
Using license file /root/gurobi.lic
Academic license 2792458 - for non-commercial use only - registered to an___@studenti.unipg.it

Gurobi Optimizer version 13.0.1 build v13.0.1rc0 (linux64 - "Ubuntu 24.04.4 LTS")
Copyright (c) 2026, Gurobi Optimization, LLC

Warning: Duplicate section found (read 'binary') - Is a variable name equal to an LP file format keyword?
Warning: Duplicate section found (read 'binary') - Is a variable name equal to an LP file format keyword?
Warning: Duplicate section found (read 'binary') - Is a variable name equal to an LP file format keyword?
Warning: Duplicate section found (read 'binary') - Is a variable name equal to an LP file format keyword?
Warning: Duplicate section found (read 'binary') - Is a variable name equal to an LP file format keyword?
Warning: Duplicate section found (read 'binary') - Is a variable name equal to an LP file format keyword?
Warning: Duplicate section found (read 'binary') - Is a variable name equal to an LP file format keyword?
Warning: Duplicate section found (read 'binary') - Is a variable name equal to an LP file format keyword?
Warning: Duplicate section found (read 'binary') - Is a variable name equal to an LP file format keyword?
Warning: Duplicate section found (read 'binary') - Is a variable name equal to an LP file format keyword?
Warning: Further warnings of this type will be omitted.
Read LP format model from file /root/bgw/data/uploads/2026_03_23_16_00_05_set_exp_3_exp_3_n021_c001_g002_max.lp
Reading time = 0.01 seconds
: 3526 rows, 357 columns, 10135 nonzeros

Using Gurobi shared library /opt/gurobi1301/linux64/lib/libgurobi.so.13.0.1

CPU model: AMD EPYC-Genoa Processor, instruction set [SSE2|AVX|AVX2|AVX512]
Thread count: 16 physical cores, 16 logical processors, using up to 16 threads

Academic license 2792458 - for non-commercial use only - registered to an___@studenti.unipg.it
Optimize a model with 3526 rows, 357 columns and 10135 nonzeros (Max)
Model fingerprint: 0xcd7a3de1
Model has 9 linear objective coefficients
Variable types: 30 continuous, 327 integer (327 binary)
Coefficient statistics:
  Matrix range     [1e+00, 2e+01]
  Objective range  [1e+00, 1e+00]
  Bounds range     [1e+00, 1e+00]
  RHS range        [1e+00, 2e+01]

Found heuristic solution: objective 9.0000000
Presolve removed 843 rows and 133 columns
Presolve time: 0.02s
Presolved: 2683 rows, 224 columns, 8139 nonzeros
Variable types: 0 continuous, 224 integer (219 binary)
Found heuristic solution: objective 14.0000000

Root relaxation: objective 4.200000e+01, 83 iterations, 0.01 seconds (0.00 work units)

    Nodes    |    Current Node    |     Objective Bounds      |     Work
 Expl Unexpl |  Obj  Depth IntInf | Incumbent    BestBd   Gap | It/Node Time

     0     0   42.00000    0   14   14.00000   42.00000   200%     -    0s
H    0     0                      21.0000000   42.00000   100%     -    0s
H    0     0                      23.0000000   42.00000  82.6%     -    0s
H    0     0                      25.0000000   42.00000  68.0%     -    0s
     0     0   42.00000    0   12   25.00000   42.00000  68.0%     -    0s
     0     0   42.00000    0   14   25.00000   42.00000  68.0%     -    0s
     0     0   42.00000    0   14   25.00000   42.00000  68.0%     -    0s
     0     0   39.00000    0   15   25.00000   39.00000  56.0%     -    0s
     0     0   39.00000    0   14   25.00000   39.00000  56.0%     -    0s
     0     0   39.00000    0   14   25.00000   39.00000  56.0%     -    0s
     0     0   39.00000    0   14   25.00000   39.00000  56.0%     -    0s
     0     0   38.52632    0   14   25.00000   38.52632  54.1%     -    0s
     0     0   38.52632    0   14   25.00000   38.52632  54.1%     -    0s
     0     0   37.00000    0   13   25.00000   37.00000  48.0%     -    0s
     0     0   37.00000    0   13   25.00000   37.00000  48.0%     -    0s
     0     0   36.52632    0   13   25.00000   36.52632  46.1%     -    0s
     0     0   36.52632    0   13   25.00000   36.52632  46.1%     -    0s
     0     2   36.52632    0   13   25.00000   36.52632  46.1%     -    0s

Cutting planes:
  Inf proof: 4
  Zero half: 2
  Mod-K: 4

Explored 419 nodes (13465 simplex iterations) in 0.47 seconds (0.34 work units)
Thread count was 16 (of 16 available processors)

Solution count 5: 25 23 21 ... 9

Optimal solution found (tolerance 1.00e-04)
Best objective 2.500000000000e+01, best bound 2.500000000000e+01, gap 0.0000%

Wrote result file '/root/bgw/data/results/2026_03_23_16_00_05_set_exp_3_exp_3_n021_c001_g002_max.sol'

